p cnf 19 15
-14 -12 -26 27 -20 0
-11 -27 -2 -17 0
-16 28 -27 0
-8 -28 -2 0
-7 -5 -28 0
-28 -11 -2 0
-7 -28 -3 0
-11 -28 -4 0
-5 -28 -10 0
-28 -10 -2 0
-7 29 -2 0
-16 -14 -29 -12 -24 -20 0
-29 -28 0
-19 -29 -27 0
-29 -27 -17 0
